big
15
0 139 400 386 658 846 801 848 796 472 678 256 474 46 474 
455 0 97 931 207 279 122 57 732 325 730 304 750 785 782 
662 109 0 251 147 568 601 972 284 559 933 803 29 263 546 
825 584 484 0 214 527 926 342 983 742 17 958 859 311 375 
57 290 268 513 0 981 350 86 645 538 689 681 817 899 544 
469 601 172 647 527 0 266 54 621 567 248 538 161 715 829 
546 765 740 787 582 514 0 318 76 909 309 990 976 370 200 
704 943 529 372 599 823 762 0 653 840 664 910 662 96 462 
119 671 997 423 421 844 91 574 0 102 944 713 711 685 762 
435 291 407 527 377 471 986 464 471 0 440 919 861 998 346 
145 617 467 401 406 440 302 551 590 799 0 214 151 634 724 
372 545 422 493 421 176 250 829 324 792 213 0 644 735 468 
787 566 144 463 426 311 630 705 279 789 861 548 0 166 111 
556 904 217 460 198 524 408 135 316 485 522 122 849 0 956 
563 353 869 427 535 152 941 288 358 879 835 214 641 965 0 